data/solutions/recovery/degenerate/moderate/flexible/degenerate_moderate_instance20/4.sol
Elapsed time: 4.72
Upper bound: 154415455.0
Planning weighted value: 2215367189.0
C[0]=154415455.0
C[1]=154406539.0
C[2]=154284123.0
C[3]=153843749.0
y[0]=2
y[1]=1
y[2]=0
y[3]=3
y[4]=2
y[5]=0
y[6]=2
y[7]=2
y[8]=0
y[9]=1
y[10]=1
y[11]=0
y[12]=3
y[13]=2
y[14]=0
y[15]=0
y[16]=2
y[17]=1
y[18]=1
y[19]=1
y[20]=2
y[21]=3
y[22]=0
y[23]=1
y[24]=2
y[25]=1
y[26]=2
y[27]=3
y[28]=0
y[29]=1
y[30]=2
y[31]=0
y[32]=3
y[33]=0
y[34]=3
y[35]=3
